(declare-fun temp800_1 () (_ BitVec 64))
(declare-fun temp800_2 () (_ BitVec 64))
(declare-fun var73602 () (_ BitVec 64))
(declare-fun k!0 () Bool)
(declare-fun ARGNAME_x_NAMEEND_DIM () (_ BitVec 64))
(declare-fun temp800_3 () (_ BitVec 64))
(declare-fun var66250 () (_ BitVec 64))
(declare-fun temp800_4 () (_ BitVec 64))
(declare-fun temp800_5 () (_ BitVec 64))
(declare-fun ARGNAME_x_NAMEEND_DIMSIZE () (Array (_ BitVec 64) (_ BitVec 64)))
(declare-fun temp800_6 () (_ BitVec 64))
(declare-fun temp800_7 () (_ BitVec 64))
(declare-fun temp800_8 () (_ BitVec 64))
(declare-fun temp800_9 () (_ BitVec 64))
(declare-fun temp800_10 () (_ BitVec 64))
(declare-fun temp800_11 () (_ BitVec 64))
(declare-fun temp800_12 () (_ BitVec 64))
(declare-fun temp800_13 () (_ BitVec 64))
(declare-fun temp800_14 () (_ BitVec 64))
(declare-fun temp800_15 () (_ BitVec 64))
(declare-fun temp800_16 () (_ BitVec 64))
(declare-fun temp800_17 () (_ BitVec 64))
(declare-fun temp800_18 () (_ BitVec 64))
(declare-fun temp800_19 () (_ BitVec 64))
(declare-fun temp800_20 () (_ BitVec 64))
(declare-fun temp800_21 () (_ BitVec 64))
(declare-fun temp800_22 () (_ BitVec 64))
(declare-fun temp800_23 () (_ BitVec 64))
(declare-fun temp800_24 () (_ BitVec 64))
(declare-fun var73613 () (_ BitVec 64))
(declare-fun temp800_25 () (_ BitVec 64))
(declare-fun temp800_26 () (_ BitVec 64))
(declare-fun temp800_27 () (_ BitVec 64))
(declare-fun temp800_28 () (_ BitVec 64))
(declare-fun var73640 () (_ BitVec 64))
(declare-fun temp800_30 () (_ BitVec 64))
(declare-fun temp800_29 () (_ BitVec 64))
(declare-fun temp800_31 () (_ BitVec 64))
(declare-fun var467142 () (_ BitVec 64))
(declare-fun temp800_32 () (_ BitVec 64))
(declare-fun var1253582 () (_ BitVec 64))
(declare-fun var1253583 () (_ BitVec 64))
(declare-fun temp800_33 () (_ BitVec 64))
(declare-fun var1311851 () (_ BitVec 64))
(declare-fun temp800_35 () (_ BitVec 64))
(declare-fun temp800_34 () (_ BitVec 64))
(declare-fun temp800_36 () (_ BitVec 64))
(declare-fun var1712369 () (_ BitVec 64))
(declare-fun temp800_37 () (_ BitVec 64))
(declare-fun var1712373 () (_ BitVec 64))
(declare-fun temp800_39 () (_ BitVec 64))
(declare-fun temp800_38 () (_ BitVec 64))
(declare-fun temp800_40 () (_ BitVec 64))
(declare-fun var2433265 () (_ BitVec 64))
(declare-fun temp800_41 () (_ BitVec 64))
(declare-fun var2433269 () (_ BitVec 64))
(declare-fun temp800_42 () (_ BitVec 64))
(declare-fun var2433299 () (_ BitVec 64))
(declare-fun temp800_43 () (_ BitVec 64))
(declare-fun temp800_45 () (_ BitVec 64))
(declare-fun temp800_44 () (_ BitVec 64))
(declare-fun temp800_46 () (_ BitVec 64))
(declare-fun var2957553 () (_ BitVec 64))
(declare-fun temp800_47 () (_ BitVec 64))
(declare-fun var2957557 () (_ BitVec 64))
(declare-fun temp800_48 () (_ BitVec 64))
(declare-fun ARGNAME_increasing_NAMEEND () (_ BitVec 64))
(assert (= temp800_1 #x0000000000000001))
(assert (= var73602
   (ite (= ARGNAME_x_NAMEEND_DIM temp800_1)
        #x0000000000000001
        #x0000000000000000)))
(assert (= temp800_2 #x0000000000000001))
(assert (= var73602 temp800_2))
(assert (= temp800_3 #x0000000000000000))
(assert (= var66250 temp800_3))
(assert (= temp800_4 #x0000000000000000))
(assert (= temp800_5 temp800_4))
(assert (= temp800_6 (select ARGNAME_x_NAMEEND_DIMSIZE temp800_5)))
(assert (= temp800_7 #x0000000000000001))
(assert (= temp800_8 temp800_7))
(assert (= temp800_9 (select ARGNAME_x_NAMEEND_DIMSIZE temp800_8)))
(assert (= temp800_10 #x0000000000000002))
(assert (= temp800_11 temp800_10))
(assert (= temp800_12 (select ARGNAME_x_NAMEEND_DIMSIZE temp800_11)))
(assert (= temp800_13 #x0000000000000003))
(assert (= temp800_14 temp800_13))
(assert (= temp800_15 (select ARGNAME_x_NAMEEND_DIMSIZE temp800_14)))
(assert (= temp800_16 #x0000000000000004))
(assert (= temp800_17 temp800_16))
(assert (= temp800_18 (select ARGNAME_x_NAMEEND_DIMSIZE temp800_17)))
(assert (= temp800_19 #x0000000000000005))
(assert (= temp800_20 temp800_19))
(assert (= temp800_21 (select ARGNAME_x_NAMEEND_DIMSIZE temp800_20)))
(assert (= temp800_22 #x0000000000000000))
(assert (= temp800_23
   (ite (bvslt var66250 temp800_22)
        (bvadd ARGNAME_x_NAMEEND_DIM var66250)
        var66250)))
(assert (= temp800_24 (select ARGNAME_x_NAMEEND_DIMSIZE temp800_23)))
(assert (= var73613 temp800_24))
(assert (bvslt (ite (bvslt var66250 temp800_22)
            (bvadd ARGNAME_x_NAMEEND_DIM var66250)
            var66250)
       ARGNAME_x_NAMEEND_DIM))
(assert (= temp800_25 #x0000000000000000))
(assert (= var66250 temp800_25))
(assert (= temp800_26 #x0000000000000000))
(assert (= temp800_27
   (ite (bvslt var66250 temp800_26)
        (bvadd ARGNAME_x_NAMEEND_DIM var66250)
        var66250)))
(assert (= temp800_28 (select ARGNAME_x_NAMEEND_DIMSIZE temp800_27)))
(assert (= var73640 temp800_28))
(assert (bvslt (ite (bvslt var66250 temp800_26)
            (bvadd ARGNAME_x_NAMEEND_DIM var66250)
            var66250)
       ARGNAME_x_NAMEEND_DIM))
(assert (= temp800_30 #x0000000000000002))
(assert (= temp800_29 temp800_30))
(assert (= temp800_31 #x0000000000000004))
(assert (= var467142 temp800_31))
(assert (= temp800_32 #x0000000000000001))
(assert (= var1253582 temp800_32))
(assert (= var1253583 var66250))
(assert (= temp800_33 #x0000000000000001))
(assert (= var1311851 temp800_33))
(assert (= temp800_35 #x0000000000000001))
(assert (= temp800_34 temp800_35))
(assert (= temp800_36 #x0000000000000001))
(assert (= var1712369 temp800_36))
(assert (= temp800_37 #x0000000000000001))
(assert (= var1712373 temp800_37))
(assert (= temp800_39 #x0000000000000001))
(assert (= temp800_38 temp800_39))
(assert (= temp800_40 #x0000000000000001))
(assert (= var2433265 temp800_40))
(assert (= temp800_41 #x0000000000000001))
(assert (= var2433269 temp800_41))
(assert (= temp800_42 #x0000000000000000))
(assert (= var2433299 temp800_42))
(assert (= temp800_43 #x0000000000000000))
(assert (= var2433299 temp800_43))
(assert (= temp800_45 #x0000000000000001))
(assert (= temp800_44 temp800_45))
(assert (= temp800_46 #x0000000000000001))
(assert (= var2957553 temp800_46))
(assert (= temp800_47 #x0000000000000001))
(assert (= var2957557 temp800_47))
(assert (= temp800_48 #x0000000000000001))
(assert (= ARGNAME_increasing_NAMEEND temp800_48))
(model-add temp800_1 () (_ BitVec 64) #x0000000000000001)
(model-add temp800_2 () (_ BitVec 64) #x0000000000000001)
(model-add var73602 () (_ BitVec 64) #x0000000000000001)
(model-del k!0)
(model-add ARGNAME_x_NAMEEND_DIM
           ()
           (_ BitVec 64)
           (ite k!0 #x0000000000000001 (bvnot #x0000000000000001)))




